100
128
41
50
27
56
56
36
29
21
26
26
25
28
4
12
12
9
33
29
8
10
28
21
16
31
22
10
8
11
3
8
11
30
15
20
13
27
28
12
8
32
22
1
25
24
39
10
31
8
16
10
21
36
15
30
15
15
42
14
35
26
17
14
14
19
57
19
17
15
9
31
38
22
36
34
19
24
27
30
12
38
59
44
45
61
14
31
56
11
25
51
23
53
28
57
43
60
64
43
45
40